
  22   10
  10   10   10   10   10   10   10   10   10   10

   0   0   0   0   0   0   0   0   0   0   0   4 2 3 5 6 
   2  10  10  10  10  10  10  10  10  10  10   6 12 11 10 9 8 7 
   2  10  10  10  10  10  10  10  10  10  10   4 12 11 9 4 
   4  10  10  10  10  10  10  10  10  10  10   2 10 7 
   5  10  10  10  10  10  10  10  10  10  10   2 21 7 
   7  10  10  10  10  10  10  10  10  10  10   2 12 10 
   8  10  10  10  10  10  10  10  10  10  10   4 20 16 15 13 
   6  10  10  10  10  10  10  10  10  10  10   4 21 20 15 13 
  10  10  10  10  10  10  10  10  10  10  10   3 21 20 13 
   3  10  10  10  10  10  10  10  10  10  10   5 21 20 18 17 14 
   1  10  10  10  10  10  10  10  10  10  10   4 20 17 15 14 
   3  10  10  10  10  10  10  10  10  10  10   2 15 13 
   1  10  10  10  10  10  10  10  10  10  10   3 18 17 14 
   9  10  10  10  10  10  10  10  10  10  10   1 19 
   7  10  10  10  10  10  10  10  10  10  10   1 18 
   5  10  10  10  10  10  10  10  10  10  10   1 17 
  10  10  10  10  10  10  10  10  10  10  10   1 22
   7  10  10  10  10  10  10  10  10  10  10   1 22
   4  10  10  10  10  10  10  10  10  10  10   1 22
   5  10  10  10  10  10  10  10  10  10  10   1 22
   7  10  10  10  10  10  10  10  10  10  10   1 22
   0   0   0   0   0   0   0   0   0   0   0   0 
